s td 291 2 364
b 1 1 127
b 2 127 128
b 3 2
b 4 3 114
b 5 3 147
b 6 3 257
b 7 4
b 8 5
b 9 6 302
b 10 301 302
b 11 302
b 12 7 182
b 13 8 183
b 14 9 329
b 15 10 240
b 16 11
b 17 12 254
b 18 253 254
b 19 254
b 20 13 323
b 21 14
b 22 15
b 23 16
b 24 17
b 25 115 116
b 26 18 116
b 27 18 258
b 28 19 233
b 29 20
b 30 21 177
b 31 22 287
b 32 287 288
b 33 23
b 34 24
b 35 25 311
b 36 25 143
b 37 143 144
b 38 26 144
b 39 26 342
b 40 27
b 41 28 314
b 42 29
b 43 331 332
b 44 30 332
b 45 30 359
b 46 31 335
b 47 32
b 48 33
b 49 34 354
b 50 353 354
b 51 354
b 52 101 102
b 53 35 101
b 54 35 194
b 55 36
b 56 37
b 57 38
b 58 39 139
b 59 39 361
b 60 361 362
b 61 40 140
b 62 41 154
b 63 41 157
b 64 42 316
b 65 43
b 66 44 243
b 67 45 293
b 68 46 339
b 69 47 195
b 70 47 223
b 71 48 107
b 72 48 272
b 73 271 272
b 74 272
b 75 49 108
b 76 49 159
b 77 50
b 78 51 131
b 79 131 132
b 80 52
b 81 53
b 82 54
b 83 55 225
b 84 225 226
b 85 56 158
b 86 56 276
b 87 275 276
b 88 276
b 89 57
b 90 58 286
b 91 58 363
b 92 59 237
b 93 237 238
b 94 60 197
b 95 197 198
b 96 61
b 97 62
b 98 63 218
b 99 217 218
b 100 218
b 101 64
b 102 65
b 103 66
b 104 67 295
b 105 67 327
b 106 68
b 107 69 298
b 108 69 349
b 109 70
b 110 71 199
b 111 71 247
b 112 72 109
b 113 72 164
b 114 72 248
b 115 73
b 116 74 273
b 117 75 251
b 118 251 252
b 119 76 256
b 120 77 124
b 121 78
b 122 79 173
b 123 80 174
b 124 173 174
b 125 174
b 126 81 333
b 127 82 219
b 128 82 300
b 129 83 220
b 130 84 208
b 131 84 350
b 132 85
b 133 86 99
b 134 86 156
b 135 155 156
b 136 156
b 137 87
b 138 88 245
b 139 88 352
b 140 89
b 141 90 262
b 142 261 262
b 143 262
b 144 91 135
b 145 92 221
b 146 92 266
b 147 151 152
b 148 93 151
b 149 93 222
b 150 94 278
b 151 95
b 152 96
b 153 97 180
b 154 133 134
b 155 98 134
b 156 98 308
b 157 100
b 158 103
b 159 104
b 160 105
b 161 106
b 162 110
b 163 111
b 164 112
b 165 113
b 166 117
b 167 118
b 168 119 120
b 169 121
b 170 122
b 171 123
b 172 125
b 173 126
b 174 129
b 175 130
b 176 136
b 177 137
b 178 138
b 179 141
b 180 142
b 181 145 146
b 182 148
b 183 149 150
b 184 153
b 185 160
b 186 161 162
b 187 163
b 188 165
b 189 166
b 190 167
b 191 168
b 192 169 170
b 193 171
b 194 172
b 195 175
b 196 176
b 197 178
b 198 179
b 199 181
b 200 184
b 201 185 186
b 202 187
b 203 188
b 204 189
b 205 190
b 206 191
b 207 192
b 208 193
b 209 196
b 210 200
b 211 201
b 212 202
b 213 203 204
b 214 205 206
b 215 207
b 216 209 210
b 217 211 212
b 218 213
b 219 214
b 220 215
b 221 216
b 222 224
b 223 227 228
b 224 229 230
b 225 231 232
b 226 234
b 227 235
b 228 236
b 229 239
b 230 241 242
b 231 244
b 232 246
b 233 249 250
b 234 255
b 235 259 260
b 236 263 264
b 237 265
b 238 267
b 239 268
b 240 269
b 241 270
b 242 274
b 243 277
b 244 279 280
b 245 281 282
b 246 283 284
b 247 285
b 248 289 290
b 249 291
b 250 292
b 251 294
b 252 296
b 253 297
b 254 299
b 255 303 304
b 256 305
b 257 306
b 258 307
b 259 309
b 260 310
b 261 312
b 262 313
b 263 315
b 264 317
b 265 318
b 266 319
b 267 320
b 268 321
b 269 322
b 270 324
b 271 325
b 272 326
b 273 328
b 274 330
b 275 334
b 276 336
b 277 337 338
b 278 340
b 279 341
b 280 343
b 281 344
b 282 345
b 283 346
b 284 347 348
b 285 351
b 286 355
b 287 356
b 288 357
b 289 358
b 290 360
b 291 364
1 2
1 3
1 4
1 7
1 8
1 9
1 12
1 13
1 14
1 15
1 16
1 17
1 20
1 21
1 22
1 23
1 24
1 25
1 28
1 29
1 30
1 31
1 33
1 34
1 35
1 40
1 41
1 42
1 43
1 46
1 47
1 48
1 49
1 52
1 55
1 56
1 57
1 58
1 61
1 62
1 64
1 65
1 66
1 67
1 68
1 69
1 71
1 75
1 77
1 78
1 80
1 81
1 82
1 83
1 85
1 89
1 90
1 92
1 94
1 96
1 97
1 98
1 101
1 102
1 103
1 104
1 106
1 107
1 109
1 110
1 112
1 115
1 116
1 117
1 119
1 120
1 121
1 122
1 126
1 127
1 129
1 130
1 132
1 133
1 137
1 138
1 140
1 141
1 144
1 145
1 147
1 150
1 151
1 152
1 153
1 154
1 157
1 158
1 159
1 160
1 161
1 162
1 163
1 164
1 165
1 166
1 167
1 168
1 169
1 170
1 171
1 172
1 173
1 174
1 175
1 176
1 177
1 178
1 179
1 180
1 181
1 182
1 183
1 184
1 185
1 186
1 187
1 188
1 189
1 190
1 191
1 192
1 193
1 194
1 195
1 196
1 197
1 198
1 199
1 200
1 201
1 202
1 203
1 204
1 205
1 206
1 207
1 208
1 209
1 210
1 211
1 212
1 213
1 214
1 215
1 216
1 217
1 218
1 219
1 220
1 221
1 222
1 223
1 224
1 225
1 226
1 227
1 228
1 229
1 230
1 231
1 232
1 233
1 234
1 235
1 236
1 237
1 238
1 239
1 240
1 241
1 242
1 243
1 244
1 245
1 246
1 247
1 248
1 249
1 250
1 251
1 252
1 253
1 254
1 255
1 256
1 257
1 258
1 259
1 260
1 261
1 262
1 263
1 264
1 265
1 266
1 267
1 268
1 269
1 270
1 271
1 272
1 273
1 274
1 275
1 276
1 277
1 278
1 279
1 280
1 281
1 282
1 283
1 284
1 285
1 286
1 287
1 288
1 289
1 290
1 291
4 6
5 6
9 11
10 11
17 19
18 19
25 26
26 27
31 32
35 36
36 37
37 38
38 39
43 44
44 45
49 51
50 51
52 53
53 54
58 59
59 60
62 63
69 70
71 72
72 74
73 74
75 76
78 79
83 84
85 86
86 88
87 88
90 91
92 93
94 95
98 100
99 100
104 105
107 108
110 111
112 114
113 114
117 118
122 124
123 125
124 125
127 128
130 131
133 134
134 136
135 136
138 139
141 143
142 143
145 146
147 148
148 149
154 155
155 156
